proyfinal/src/viki/013/andrea/andrea-localstore/experimentInOfficeAgust.take6/worker_5/696a052d-b899-47f7-bbb8-7256418a58c9.als.cnf.out
Reading from standard input... Use '--help' for help.
============================[ Problem Statistics ]=============================
|                                                                             |
|  Number of variables:         87638                                         |
|  Number of clauses:          161767                                         |
|  Parse time:                   0.04 s                                       |
|                                                                             |
============================[ Search Statistics ]==============================
| Conflicts |          ORIGINAL         |          LEARNT          | Progress |
|           |    Vars  Clauses Literals |    Limit  Clauses Lit/Cl |          |
===============================================================================
|       100 |   62670   106278   265482 |    38968      100     21 | 28.490 % |
|       250 |   62670   106278   265482 |    42865      250     36 | 28.490 % |
|       475 |   62491   105572   263801 |    47152      465     43 | 28.694 % |
|       812 |   62491   105572   263801 |    51867      802     48 | 28.694 % |
|      1318 |   62487   105556   263757 |    57053     1291     56 | 28.699 % |
|      2077 |   62450   105368   263330 |    62759     2044     81 | 28.741 % |
|      3216 |   62382   105094   262688 |    69035     3168     72 | 28.819 % |
|      4924 |   62341   104926   262301 |    75938     4870     70 | 28.865 % |
|      7486 |   62323   104852   262130 |    83532     7430     88 | 28.886 % |
|     11330 |   62126   104023   260195 |    91885    10902     86 | 29.111 % |
|     17096 |   51701    73147   184454 |   101074    16558     82 | 41.006 % |
===============================================================================
restarts              : 78
conflicts             : 21825          (6508 /sec)
decisions             : 71874          (0.00 % random) (21431 /sec)
propagations          : 31349433       (9347749 /sec)
conflict literals     : 1630819        (48.81 % deleted)
Memory used           : 40.45 MB
CPU time              : 3.35369 s

INDETERMINATE
